1000110100111010011011110000111111010110001100100110100001011001010101010010010100010101010110100011111100001111110001110000111111111010100010011010010101010110000100010010001001100000011000110001111111110100010100111000100101110101000111101010101000100110